NAME: pr136
COMMENT: Local search tour for pr136 (113114.25058176207)
TYPE: TOUR
DIMENSION: 136
TOUR_SECTION: 1 17 19 31 29 30 6 5 18 52 85 119 107 132 131 136 130 129 135 121 117 105 110 109 120 118 108 106 99 97 98 73 74 72 84 86 96 95 100 87 83 75 76 71 66 54 50 61 62 51 53 65 63 64 39 40 38 41 42 37 26 25 43 44 36 48 55 67 59 60 49 77 78 70 82 89 101 93 94 88 122 111 112 128 127 134 123 116 104 113 126 125 133 124 115 103 114 92 91 102 90 81 69 80 79 58 57 68 56 47 35 46 45 33 24 23 34 22 13 4 12 11 21 14 3 10 9 15 32 20 16 2 8 27 28 7 -1
EOF